230
745.0 1065.0 
772.0 1010.0 
894.0 1120.0 
924.0 1096.0 
961.0 1093.0 
961.0 1093.0 
996.0 1080.0 
745.0 1065.0 
745.0 1065.0 
700.0 1026.0 
772.0 1010.0 
894.0 1120.0 
924.0 1096.0 
961.0 1093.0 
961.0 1093.0 
996.0 1080.0 
996.0 1080.0 
865.0 1015.0 
772.0 1010.0 
772.0 1010.0 
894.0 1120.0 
906.0 1068.0 
906.0 1068.0 
961.0 1093.0 
961.0 1093.0 
1029.0 1187.0 
996.0 1080.0 
996.0 1080.0 
745.0 1065.0 
772.0 1010.0 
772.0 1010.0 
924.0 1096.0 
961.0 1093.0 
961.0 1093.0 
996.0 1080.0 
996.0 1080.0 
745.0 1065.0 
772.0 1010.0 
894.0 1120.0 
894.0 1120.0 
924.0 1096.0 
961.0 1093.0 
961.0 1093.0 
996.0 1080.0 
996.0 1080.0 
745.0 1065.0 
772.0 1010.0 
772.0 1010.0 
772.0 1010.0 
894.0 1120.0 
894.0 1120.0 
906.0 1068.0 
906.0 1068.0 
961.0 1093.0 
961.0 1093.0 
996.0 1080.0 
996.0 1080.0 
700.0 1026.0 
745.0 1065.0 
772.0 1010.0 
878.0 1135.0 
894.0 1120.0 
894.0 1120.0 
924.0 1096.0 
961.0 1093.0 
961.0 1093.0 
996.0 1080.0 
996.0 1080.0 
865.0 1015.0 
772.0 1010.0 
894.0 1120.0 
894.0 1120.0 
906.0 1068.0 
906.0 1068.0 
961.0 1093.0 
1029.0 1187.0 
961.0 1093.0 
996.0 1080.0 
996.0 1080.0 
745.0 1065.0 
772.0 1010.0 
875.0 1057.0 
894.0 1120.0 
882.0 1056.0 
924.0 1096.0 
961.0 1093.0 
961.0 1093.0 
1029.0 1187.0 
996.0 1080.0 
996.0 1080.0 
772.0 1010.0 
772.0 1010.0 
882.0 1056.0 
894.0 1120.0 
906.0 1068.0 
906.0 1068.0 
961.0 1093.0 
961.0 1093.0 
996.0 1080.0 
700.0 1026.0 
760.0 1076.0 
760.0 1076.0 
881.0 1235.0 
881.0 1235.0 
962.0 1214.0 
894.0 1120.0 
932.0 1135.0 
932.0 1135.0 
924.0 1096.0 
1029.0 1187.0 
1029.0 1187.0 
961.0 1093.0 
961.0 1093.0 
868.0 914.0 
1030.0 1142.0 
924.0 922.0 
924.0 922.0 
817.0 771.0 
806.0 779.0 
806.0 779.0 
955.0 879.0 
873.0 809.0 
872.0 796.0 
760.0 1076.0 
881.0 1235.0 
881.0 1235.0 
894.0 1120.0 
894.0 1120.0 
932.0 1135.0 
961.0 1093.0 
961.0 1093.0 
996.0 1080.0 
996.0 1080.0 
872.0 796.0 
1005.0 1009.0 
760.0 1076.0 
962.0 1214.0 
894.0 1120.0 
961.0 1093.0 
961.0 1093.0 
996.0 1080.0 
996.0 1080.0 
932.0 1135.0 
760.0 1076.0 
760.0 1076.0 
894.0 1120.0 
894.0 1120.0 
932.0 1135.0 
924.0 1096.0 
1029.0 1187.0 
1029.0 1187.0 
961.0 1093.0 
961.0 1093.0 
996.0 1080.0 
1005.0 1009.0 
760.0 1076.0 
760.0 1076.0 
881.0 1235.0 
881.0 1235.0 
894.0 1120.0 
827.0 857.0 
882.0 1056.0 
932.0 1135.0 
932.0 1135.0 
924.0 1096.0 
924.0 1096.0 
1029.0 1187.0 
1029.0 1187.0 
952.0 1024.0 
952.0 1024.0 
758.0 1116.0 
861.0 1098.0 
861.0 1098.0 
876.0 1080.0 
876.0 1080.0 
906.0 1068.0 
906.0 1068.0 
891.0 1086.0 
996.0 1080.0 
996.0 1080.0 
1029.0 1187.0 
760.0 1076.0 
881.0 1235.0 
894.0 1120.0 
962.0 1214.0 
1029.0 1187.0 
1029.0 1187.0 
961.0 1093.0 
961.0 1093.0 
996.0 1080.0 
1005.0 1009.0 
932.0 1135.0 
730.0 1065.0 
592.0 851.0 
592.0 851.0 
730.0 1065.0 
760.0 1076.0 
881.0 1235.0 
881.0 1235.0 
732.0 982.0 
962.0 1214.0 
962.0 1214.0 
882.0 1056.0 
827.0 857.0 
894.0 1120.0 
932.0 1135.0 
992.0 1190.0 
1029.0 1187.0 
760.0 1076.0 
760.0 1076.0 
894.0 1120.0 
894.0 1120.0 
932.0 1135.0 
932.0 1135.0 
992.0 1190.0 
1029.0 1187.0 
1029.0 1187.0 
961.0 1093.0 
961.0 1093.0 
996.0 1080.0 
996.0 1080.0 
1005.0 1009.0 
962.0 1214.0 
894.0 1120.0 
992.0 1190.0 
992.0 1190.0 
932.0 1135.0 
924.0 1096.0 
1029.0 1187.0 
1029.0 1187.0 

0 321 484 80 478 116 470 467 469 183 471 446 494 493 475 82 84 0 
0 321 484 84 82 80 478 116 470 467 469 183 471 446 493 479 0 
0 321 477 78 489 80 81 478 116 470 469 467 183 471 475 84 82 486 484 0 
0 321 477 78 489 80 478 116 470 469 467 183 471 472 475 84 82 486 484 0 
0 321 477 78 489 80 81 478 116 470 467 469 183 471 472 475 82 84 479 0 
0 321 477 78 489 80 81 478 116 470 469 467 183 471 472 475 82 84 479 0 
0 321 477 78 489 80 478 116 470 469 467 183 471 472 82 84 479 486 484 0 
0 321 484 80 478 116 470 469 467 183 471 446 494 493 475 82 84 0 
0 321 484 80 478 116 470 467 469 183 471 446 494 493 475 82 84 0 
0 321 484 82 80 478 116 470 467 469 183 471 446 493 475 84 0 
0 321 484 84 82 80 478 116 470 467 469 183 471 446 493 479 0 
0 321 477 78 489 80 81 478 116 470 469 467 183 471 475 84 82 486 484 0 
0 321 477 78 489 80 478 116 470 469 467 183 471 472 475 84 82 486 484 0 
0 321 477 78 489 80 81 478 116 470 469 467 183 471 472 475 82 84 479 0 
0 321 477 78 489 80 81 478 116 470 467 469 183 471 472 475 82 84 479 0 
0 321 477 78 489 80 478 116 470 467 469 183 471 472 82 84 479 486 484 0 
0 321 477 78 489 80 478 116 470 469 467 183 471 472 82 84 479 486 484 0 
0 321 477 78 489 80 478 116 470 467 469 183 471 475 84 82 484 0 
0 321 484 84 82 80 478 116 470 467 469 183 471 446 493 479 0 
0 321 484 84 82 80 478 116 470 469 467 183 471 446 493 479 0 
0 321 477 78 489 80 81 478 116 470 469 467 183 471 475 84 82 486 484 0 
0 321 477 78 489 80 81 478 116 470 469 467 183 471 475 82 84 479 0 
0 321 477 78 489 80 81 478 116 470 467 469 183 471 475 82 84 479 0 
0 321 477 78 489 80 81 478 116 470 469 467 183 471 472 475 82 84 479 0 
0 321 477 78 489 80 81 478 116 470 467 469 183 471 472 475 82 84 479 0 
0 479 84 82 475 472 473 471 183 467 469 470 116 478 81 80 489 78 477 321 0 
0 321 477 78 489 80 478 116 470 467 469 183 471 472 82 84 479 486 484 0 
0 321 477 78 489 80 478 116 470 469 467 183 471 472 82 84 479 486 484 0 
0 321 484 80 478 116 470 467 469 183 471 446 494 493 475 82 84 0 
0 321 484 84 82 80 478 116 470 469 467 183 471 446 493 479 0 
0 321 484 84 82 80 478 116 470 469 467 183 471 446 493 479 0 
0 321 477 78 489 80 478 116 470 469 467 183 471 472 475 84 82 486 484 0 
0 321 477 78 489 80 81 478 116 470 469 467 183 471 472 475 82 84 479 0 
0 321 477 78 489 80 81 478 116 470 467 469 183 471 472 475 82 84 479 0 
0 321 477 78 489 80 478 116 470 469 467 183 471 472 82 84 479 486 484 0 
0 321 477 78 489 80 478 116 470 467 469 183 471 472 82 84 479 486 484 0 
0 321 484 80 478 116 470 467 469 183 471 446 494 493 475 82 84 0 
0 321 484 84 82 80 478 116 470 467 469 183 471 446 493 479 0 
0 321 477 78 489 80 81 478 116 470 469 467 183 471 475 84 82 486 484 0 
0 321 477 78 489 80 81 478 116 470 467 469 183 471 475 84 82 486 484 0 
0 321 477 78 489 80 478 116 470 469 467 183 471 472 475 84 82 486 484 0 
0 321 477 78 489 80 81 478 116 470 469 467 183 471 472 475 82 84 479 0 
0 321 477 78 489 80 81 478 116 470 467 469 183 471 472 475 82 84 479 0 
0 321 477 78 489 80 478 116 470 469 467 183 471 472 82 84 479 486 484 0 
0 321 477 78 489 80 478 116 470 467 469 183 471 472 82 84 479 486 484 0 
0 321 484 80 478 116 470 467 469 183 471 446 494 493 475 82 84 0 
0 321 484 84 82 80 478 116 470 467 469 183 471 446 493 479 0 
0 321 484 84 82 80 478 116 470 469 467 183 471 446 493 479 0 
0 321 484 84 82 80 478 116 470 469 467 183 471 446 493 479 0 
0 321 477 78 489 80 81 478 116 470 467 469 183 471 475 84 82 486 484 0 
0 321 477 78 489 80 81 478 116 470 469 467 183 471 475 84 82 486 484 0 
0 321 477 78 489 80 81 478 116 470 467 469 183 471 475 82 84 479 0 
0 321 477 78 489 80 81 478 116 470 469 467 183 471 475 82 84 479 0 
0 321 477 78 489 80 81 478 116 470 467 469 183 471 472 475 82 84 479 0 
0 321 477 78 489 80 81 478 116 470 469 467 183 471 472 475 82 84 479 0 
0 321 477 78 489 80 478 116 470 469 467 183 471 472 82 84 479 486 484 0 
0 321 477 78 489 80 478 116 470 467 469 183 471 472 82 84 479 486 484 0 
0 321 484 82 80 478 116 470 469 467 183 471 446 493 475 84 0 
0 321 484 80 478 116 470 467 469 183 471 446 494 493 475 82 84 0 
0 321 484 84 82 80 478 116 470 467 469 183 471 446 493 479 0 
0 321 78 489 80 478 116 470 467 469 183 471 475 82 84 479 486 484 0 
0 321 477 78 489 80 81 478 116 470 469 467 183 471 475 84 82 486 484 0 
0 321 477 78 489 80 81 478 116 470 467 469 183 471 475 84 82 486 484 0 
0 321 477 78 489 80 478 116 470 469 467 183 471 472 475 84 82 486 484 0 
0 321 477 78 489 80 81 478 116 470 469 467 183 471 472 475 82 84 479 0 
0 321 477 78 489 80 81 478 116 470 467 469 183 471 472 475 82 84 479 0 
0 321 477 78 489 80 478 116 470 469 467 183 471 472 82 84 479 486 484 0 
0 321 477 78 489 80 478 116 470 467 469 183 471 472 82 84 479 486 484 0 
0 321 477 78 489 80 478 116 470 467 469 183 471 475 84 82 484 0 
0 321 484 84 82 80 478 116 470 467 469 183 471 446 493 479 0 
0 321 477 78 489 80 81 478 116 470 469 467 183 471 475 84 82 486 484 0 
0 321 477 78 489 80 81 478 116 470 467 469 183 471 475 84 82 486 484 0 
0 321 477 78 489 80 81 478 116 470 467 469 183 471 475 82 84 479 0 
0 321 477 78 489 80 81 478 116 470 469 467 183 471 475 82 84 479 0 
0 321 477 78 489 80 81 478 116 470 469 467 183 471 472 475 82 84 479 0 
0 479 84 82 475 472 473 471 183 467 469 470 116 478 81 80 489 78 477 321 0 
0 321 477 78 489 80 81 478 116 470 467 469 183 471 472 475 82 84 479 0 
0 321 477 78 489 80 478 116 470 469 467 183 471 472 82 84 479 486 484 0 
0 321 477 78 489 80 478 116 470 467 469 183 471 472 82 84 479 486 484 0 
0 321 484 80 478 116 470 467 469 183 471 446 494 493 475 82 84 0 
0 321 484 84 82 80 478 116 470 467 469 183 471 446 493 479 0 
0 321 484 84 82 489 477 80 81 478 116 470 469 467 471 475 479 0 
0 321 477 78 489 80 81 478 116 470 469 467 183 471 475 84 82 486 484 0 
0 321 484 477 78 489 80 81 478 116 470 469 467 471 475 84 82 486 0 
0 321 477 78 489 80 478 116 470 469 467 183 471 472 475 84 82 486 484 0 
0 321 477 78 489 80 81 478 116 470 469 467 183 471 472 475 82 84 479 0 
0 321 477 78 489 80 81 478 116 470 467 469 183 471 472 475 82 84 479 0 
0 479 84 82 475 472 473 471 183 467 469 470 116 478 81 80 489 78 477 321 0 
0 321 477 78 489 80 478 116 470 469 467 183 471 472 82 84 479 486 484 0 
0 321 477 78 489 80 478 116 470 467 469 183 471 472 82 84 479 486 484 0 
0 321 484 84 82 80 478 116 470 469 467 183 471 446 493 479 0 
0 321 484 84 82 80 478 116 470 467 469 183 471 446 493 479 0 
0 321 484 477 78 489 80 81 478 116 470 469 467 471 475 84 82 486 0 
0 321 477 78 489 80 81 478 116 470 467 469 183 471 475 84 82 486 484 0 
0 321 477 78 489 80 81 478 116 470 469 467 183 471 475 82 84 479 0 
0 321 477 78 489 80 81 478 116 470 467 469 183 471 475 82 84 479 0 
0 321 477 78 489 80 81 478 116 470 469 467 183 471 472 475 82 84 479 0 
0 321 477 78 489 80 81 478 116 470 467 469 183 471 472 475 82 84 479 0 
0 321 477 78 489 80 478 116 470 469 467 183 471 472 82 84 479 486 484 0 
0 321 484 82 80 478 116 470 469 467 183 471 446 493 475 84 0 
0 159 491 479 84 475 473 471 183 469 467 470 116 478 80 484 0 
0 159 491 479 84 475 473 471 183 467 469 470 116 478 80 484 0 
0 479 84 475 472 473 471 183 467 469 470 116 478 81 80 82 486 484 321 0 
0 479 84 475 472 473 471 183 469 467 470 116 478 81 80 82 486 484 321 0 
0 477 78 489 80 81 478 116 470 469 467 183 471 473 475 84 82 486 484 321 0 
0 321 477 78 489 80 81 478 116 470 467 469 183 471 475 84 82 486 484 0 
0 484 486 84 82 475 472 473 471 183 467 469 470 116 478 80 78 477 321 0 
0 484 486 84 82 475 472 473 471 183 469 467 470 116 478 80 78 477 321 0 
0 321 477 78 489 80 478 116 470 467 469 183 471 472 475 84 82 486 484 0 
0 479 84 82 475 472 473 471 183 467 469 470 116 478 81 80 489 78 477 321 0 
0 479 84 82 475 472 473 471 183 469 467 470 116 478 81 80 489 78 477 321 0 
0 321 477 78 489 80 81 478 116 470 467 469 183 471 472 475 82 84 479 0 
0 321 477 78 489 80 81 478 116 470 469 467 183 471 472 475 82 84 479 0 
0 321 484 84 82 489 78 477 80 81 478 116 470 467 469 471 0 
0 479 84 116 470 469 467 471 473 183 478 81 80 477 78 489 82 484 321 0 
0 321 484 477 78 489 80 81 478 470 469 467 471 116 84 479 0 
0 321 484 477 78 489 80 81 478 470 467 469 471 116 84 479 0 
0 321 484 477 78 489 80 81 478 116 470 467 469 471 0 
0 321 477 78 489 80 81 478 116 470 469 467 183 471 493 0 
0 321 477 78 489 80 81 478 116 470 467 469 183 471 493 0 
0 321 484 477 78 489 80 82 478 116 470 469 467 471 472 479 0 
0 321 484 477 78 489 80 82 478 116 470 467 469 471 472 0 
0 321 484 477 78 489 80 81 478 116 470 467 469 471 472 0 
0 159 491 479 84 475 473 471 183 467 469 470 116 478 80 484 0 
0 479 84 475 472 473 471 183 467 469 470 116 478 81 80 82 486 484 321 0 
0 479 84 475 472 473 471 183 469 467 470 116 478 81 80 82 486 484 321 0 
0 321 477 78 489 80 81 478 116 470 469 467 183 471 475 84 82 486 484 0 
0 321 477 78 489 80 81 478 116 470 467 469 183 471 475 84 82 486 484 0 
0 484 486 84 82 475 472 473 471 183 469 467 470 116 478 80 78 477 321 0 
0 321 477 78 489 80 81 478 116 470 467 469 183 471 472 475 82 84 479 0 
0 321 477 78 489 80 81 478 116 470 469 467 183 471 472 475 82 84 479 0 
0 321 477 78 489 80 478 116 470 469 467 183 471 472 82 84 479 486 484 0 
0 321 477 78 489 80 478 116 470 467 469 183 471 472 82 84 479 486 484 0 
0 321 484 477 78 489 80 81 478 116 470 467 469 471 472 0 
0 321 484 477 78 489 80 81 478 116 470 469 467 471 472 82 84 479 0 
0 159 491 479 84 475 473 471 183 467 469 470 116 478 80 484 0 
0 477 78 489 80 81 478 116 470 469 467 183 471 473 475 84 82 486 484 321 0 
0 321 477 78 489 80 81 478 116 470 469 467 183 471 475 84 82 486 484 0 
0 321 477 78 489 80 81 478 116 470 469 467 183 471 472 475 82 84 479 0 
0 321 477 78 489 80 81 478 116 470 467 469 183 471 472 475 82 84 479 0 
0 321 477 78 489 80 478 116 470 467 469 183 471 472 82 84 479 486 484 0 
0 321 477 78 489 80 478 116 470 469 467 183 471 472 82 84 479 486 484 0 
0 484 486 84 82 475 472 473 471 183 467 469 470 116 478 80 78 477 321 0 
0 159 491 479 84 475 473 471 183 467 469 470 116 478 80 484 0 
0 159 491 479 84 475 473 471 183 469 467 470 116 478 80 484 0 
0 321 477 78 489 80 81 478 116 470 467 469 183 471 475 84 82 486 484 0 
0 321 477 78 489 80 81 478 116 470 469 467 183 471 475 84 82 486 484 0 
0 484 486 84 82 475 472 473 471 183 469 467 470 116 478 80 78 477 321 0 
0 321 477 78 489 80 478 116 470 467 469 183 471 472 475 84 82 486 484 0 
0 479 84 82 475 472 473 471 183 467 469 470 116 478 81 80 489 78 477 321 0 
0 479 84 82 475 472 473 471 183 469 467 470 116 478 81 80 489 78 477 321 0 
0 321 477 78 489 80 81 478 116 470 467 469 183 471 472 475 82 84 479 0 
0 321 477 78 489 80 81 478 116 470 469 467 183 471 472 475 82 84 479 0 
0 321 477 78 489 80 478 116 470 469 467 183 471 472 82 84 479 486 484 0 
0 321 484 477 78 489 80 81 478 116 470 469 467 471 472 82 84 479 0 
0 159 491 479 84 475 473 471 183 467 469 470 116 478 80 484 0 
0 159 491 479 84 475 473 471 183 469 467 470 116 478 80 484 0 
0 479 84 475 472 473 471 183 467 469 470 116 478 81 80 82 486 484 321 0 
0 479 84 475 472 473 471 183 469 467 470 116 478 81 80 82 486 484 321 0 
0 321 477 78 489 80 81 478 116 470 469 467 183 471 475 84 82 486 484 0 
0 321 484 477 78 489 80 81 478 116 470 467 469 471 475 0 
0 321 484 477 78 489 80 81 478 116 470 469 467 471 475 84 82 486 0 
0 484 486 84 82 475 472 473 471 183 469 467 470 116 478 80 78 477 321 0 
0 484 486 84 82 475 472 473 471 183 467 469 470 116 478 80 78 477 321 0 
0 321 477 78 489 80 478 116 470 467 469 183 471 472 475 84 82 486 484 0 
0 321 477 78 489 80 478 116 470 469 467 183 471 472 475 84 82 486 484 0 
0 479 84 82 475 472 473 471 183 467 469 470 116 478 81 80 489 78 477 321 0 
0 479 84 82 475 472 473 471 183 469 467 470 116 478 81 80 489 78 477 321 0 
0 159 479 84 82 472 471 183 469 467 470 116 478 80 489 78 477 484 0 
0 159 479 84 82 472 471 183 467 469 470 116 478 80 489 78 477 484 0 
0 321 486 479 84 475 471 183 469 467 470 116 478 81 80 82 484 0 
0 484 486 479 84 82 475 472 471 183 469 467 470 116 478 80 477 321 0 
0 484 486 479 84 82 475 472 471 183 467 469 470 116 478 80 477 321 0 
0 321 477 489 80 81 478 116 470 469 467 183 471 472 475 82 84 479 0 
0 321 477 489 80 81 478 116 470 467 469 183 471 472 475 82 84 479 0 
0 321 477 78 489 80 81 478 116 470 469 467 183 471 475 82 84 479 0 
0 321 477 78 489 80 81 478 116 470 467 469 183 471 475 82 84 479 0 
0 484 486 479 84 82 475 471 183 469 467 470 116 478 80 78 477 321 0 
0 321 477 78 489 80 478 116 470 467 469 183 471 472 82 84 479 486 484 0 
0 321 477 78 489 80 478 116 470 469 467 183 471 472 82 84 479 486 484 0 
0 479 84 82 475 472 473 471 183 469 467 470 116 478 81 80 489 78 477 321 0 
0 159 491 479 84 475 473 471 183 467 469 470 116 478 80 484 0 
0 479 84 475 472 473 471 183 467 469 470 116 478 81 80 82 486 484 321 0 
0 321 477 78 489 80 81 478 116 470 469 467 183 471 475 84 82 486 484 0 
0 477 78 489 80 81 478 116 470 469 467 183 471 473 475 84 82 486 484 321 0 
0 479 84 82 475 472 473 471 183 467 469 470 116 478 81 80 489 78 477 321 0 
0 479 84 82 475 472 473 471 183 469 467 470 116 478 81 80 489 78 477 321 0 
0 321 477 78 489 80 81 478 116 470 467 469 183 471 472 475 82 84 479 0 
0 321 477 78 489 80 81 478 116 470 469 467 183 471 472 475 82 84 479 0 
0 321 477 78 489 80 478 116 470 469 467 183 471 472 82 84 479 486 484 0 
0 321 484 477 78 489 80 81 478 116 470 469 467 471 472 82 84 479 0 
0 484 486 84 82 475 472 473 471 183 467 469 470 116 478 80 78 477 321 0 
0 321 484 80 478 116 470 467 469 183 473 446 494 493 475 82 84 0 
0 321 484 82 80 478 116 470 467 469 183 446 493 475 0 
0 321 484 82 80 478 116 470 469 467 183 446 493 475 0 
0 321 484 80 478 116 470 469 467 183 473 446 494 493 475 82 84 0 
0 159 491 479 84 475 473 471 183 467 469 470 116 478 80 484 0 
0 479 84 475 472 473 471 183 469 467 470 116 478 81 80 82 486 484 321 0 
0 479 84 475 472 473 471 183 467 469 470 116 478 81 80 82 486 484 321 0 
0 484 486 479 84 82 475 471 183 467 469 470 116 478 80 78 0 
0 477 78 489 80 81 478 116 470 469 467 183 471 473 475 84 82 486 484 321 0 
0 477 78 489 80 81 478 116 470 467 469 183 471 473 475 84 82 486 484 321 0 
0 321 484 477 78 489 80 81 478 116 470 469 467 471 475 84 82 486 0 
0 321 484 477 78 489 80 81 478 116 470 467 469 471 475 0 
0 321 477 78 489 80 81 478 116 470 469 467 183 471 475 84 82 486 484 0 
0 484 486 84 82 475 472 473 471 183 467 469 470 116 478 80 78 477 321 0 
0 477 78 489 80 478 116 470 469 467 183 471 473 472 475 84 82 486 484 321 0 
0 479 84 82 475 472 473 471 183 467 469 470 116 478 81 80 489 78 477 321 0 
0 159 491 479 84 475 473 471 183 469 467 470 116 478 80 484 0 
0 159 491 479 84 475 473 471 183 467 469 470 116 478 80 484 0 
0 321 477 78 489 80 81 478 116 470 469 467 183 471 475 84 82 486 484 0 
0 321 477 78 489 80 81 478 116 470 467 469 183 471 475 84 82 486 484 0 
0 484 486 84 82 475 472 473 471 183 467 469 470 116 478 80 78 477 321 0 
0 484 486 84 82 475 472 473 471 183 469 467 470 116 478 80 78 477 321 0 
0 477 78 489 80 478 116 470 467 469 183 471 473 472 475 84 82 486 484 321 0 
0 479 84 82 475 472 473 471 183 467 469 470 116 478 81 80 489 78 477 321 0 
0 479 84 82 475 472 473 471 183 469 467 470 116 478 81 80 489 78 477 321 0 
0 321 477 78 489 80 81 478 116 470 467 469 183 471 472 475 82 84 479 0 
0 321 477 78 489 80 81 478 116 470 469 467 183 471 472 475 82 84 479 0 
0 321 477 78 489 80 478 116 470 469 467 183 471 472 82 84 479 486 484 0 
0 321 477 78 489 80 478 116 470 467 469 183 471 472 82 84 479 486 484 0 
0 321 484 477 78 489 80 81 478 116 470 469 467 471 472 82 84 479 0 
0 477 78 489 80 81 478 116 470 469 467 183 471 473 475 84 82 486 484 321 0 
0 321 477 78 489 80 81 478 116 470 469 467 183 471 475 84 82 486 484 0 
0 477 78 489 80 478 116 470 467 469 183 471 473 472 475 84 82 486 484 321 0 
0 477 78 489 80 478 116 470 469 467 183 471 473 472 475 84 82 486 484 321 0 
0 484 486 84 82 475 472 473 471 183 467 469 470 116 478 80 78 477 321 0 
0 321 477 78 489 80 478 116 470 469 467 183 471 472 475 84 82 486 484 0 
0 479 84 82 475 472 473 471 183 467 469 470 116 478 81 80 489 78 477 321 0 
0 479 84 82 475 472 473 471 183 469 467 470 116 478 81 80 489 78 477 321 0 
